benchmarks/crosswords/mzn/crossword3_31.ozn
output ([(((("\n"++problem_name)++"\n")++"L:")++show(L))++"\n"]++[if problem[i,j]==0 then "*" else show(letters[fix(L[problem[i,j]])]) endif++if j==cols then "\n" else "" endif | i in 1..rows, j in 1..cols, ])++["\n"];
int: rows = 21;
int: cols = 21;
array [1..rows,1..cols] of int: problem = [|1,2,3,4,0,5,6,7,8,9,0,10,11,12,13,14,0,15,16,17,18|19,20,21,22,0,23,24,25,26,27,0,28,29,30,31,32,0,33,34,35,36|37,38,39,40,0,41,42,43,44,45,0,46,47,48,49,50,0,51,52,53,54|55,56,57,58,59,0,60,61,62,63,64,0,65,66,67,68,69,70,71,72,73|0,0,0,74,75,76,77,78,0,79,80,81,0,82,83,84,85,86,0,0,0|87,88,89,90,91,92,93,0,94,95,96,97,98,0,99,100,101,0,102,103,104|105,106,107,108,109,110,0,111,112,113,114,115,116,117,0,118,119,120,121,122,123|124,125,126,127,128,0,129,130,131,132,0,133,134,135,136,0,137,138,139,140,141|142,143,144,145,0,146,147,148,149,0,150,151,152,153,154,155,0,156,157,158,159|160,161,162,0,163,164,165,166,0,167,168,169,170,171,172,173,174,175,176,177,178|0,0,0,179,180,181,182,0,183,184,185,186,187,0,188,189,190,191,0,0,0|192,193,194,195,196,197,198,199,200,201,202,203,0,204,205,206,207,0,208,209,210|211,212,213,214,0,215,216,217,218,219,220,0,221,222,223,224,0,225,226,227,228|229,230,231,232,233,0,234,235,236,237,0,238,239,240,241,0,242,243,244,245,246|247,248,249,250,251,252,0,253,254,255,256,257,258,259,0,260,261,262,263,264,265|266,267,268,0,269,270,271,0,272,273,274,275,276,0,277,278,279,280,281,282,283|0,0,0,284,285,286,287,288,0,289,290,291,0,292,293,294,295,296,0,0,0|297,298,299,300,301,302,303,304,305,0,306,307,308,309,310,0,311,312,313,314,315|316,317,318,319,0,320,321,322,323,324,0,325,326,327,328,329,0,330,331,332,333|334,335,336,337,0,338,339,340,341,342,0,343,344,345,346,347,0,348,349,350,351|352,353,354,355,0,356,357,358,359,360,0,361,362,363,364,365,0,366,367,368,369|];
int: num_letters = 26;
array [1..num_letters] of string: letters = ["a","b","c","d","e","f","g","h","i","j","k","l","m","n","o","p","q","r","s","t","u","v","w","x","y","z"];
int: N = 369;
array [0..N] of int: L;
string: problem_name = "21.02, 21 x 21";
