benchmarks/crosswords/mzn/crossword3_31.res
REGULAR
REGULAR
REGULAR
REGULAR
REGULAR
REGULAR
REGULAR
REGULAR
REGULAR
REGULAR
REGULAR
REGULAR
REGULAR
REGULAR
REGULAR
REGULAR
REGULAR
REGULAR
REGULAR
REGULAR
REGULAR
REGULAR
REGULAR
REGULAR
REGULAR
REGULAR
REGULAR
REGULAR
REGULAR
REGULAR
REGULAR
REGULAR
REGULAR
REGULAR
REGULAR
REGULAR
REGULAR
REGULAR
REGULAR
REGULAR
REGULAR
REGULAR
REGULAR
REGULAR
REGULAR
REGULAR
REGULAR
REGULAR
REGULAR
REGULAR
REGULAR
REGULAR
REGULAR
REGULAR
REGULAR
REGULAR
REGULAR
REGULAR
REGULAR
REGULAR
REGULAR
REGULAR
REGULAR
REGULAR
REGULAR
REGULAR
REGULAR
REGULAR
REGULAR
REGULAR
REGULAR
REGULAR
REGULAR
REGULAR
REGULAR
REGULAR
REGULAR
REGULAR
REGULAR
REGULAR
REGULAR
REGULAR
REGULAR
REGULAR
REGULAR
REGULAR
REGULAR
REGULAR
REGULAR
REGULAR
REGULAR
REGULAR
REGULAR
REGULAR
REGULAR
REGULAR
REGULAR
REGULAR
REGULAR
REGULAR
REGULAR
REGULAR
REGULAR
REGULAR
REGULAR
REGULAR
REGULAR
REGULAR
REGULAR
REGULAR
REGULAR
REGULAR
REGULAR
REGULAR
REGULAR
REGULAR
REGULAR
REGULAR
REGULAR
REGULAR
REGULAR
REGULAR
REGULAR
REGULAR
REGULAR
REGULAR
REGULAR
REGULAR
REGULAR
REGULAR
REGULAR
REGULAR
REGULAR
REGULAR
REGULAR
REGULAR
REGULAR
REGULAR
REGULAR
REGULAR
REGULAR
REGULAR
REGULAR
REGULAR
REGULAR
REGULAR
REGULAR
REGULAR
REGULAR
REGULAR
L = array1d(0..369, [1, 5, 5, 12, 7, 4, 5, 18, 1, 4, 14, 5, 18, 1, 4, 5, 12, 19, 9, 12, 12, 21, 14, 4, 14, 5, 13, 5, 1, 13, 5, 14, 5, 18, 9, 1, 12, 15, 7, 1, 9, 15, 9, 4, 1, 18, 8, 3, 9, 5, 18, 2, 1, 8, 1, 19, 15, 8, 20, 5, 14, 5, 13, 5, 25, 1, 12, 12, 1, 3, 1, 18, 1, 3, 1, 8, 11, 1, 19, 16, 1, 18, 19, 1, 7, 1, 19, 20, 5, 14, 9, 2, 1, 3, 14, 1, 23, 15, 9, 7, 21, 1, 20, 1, 19, 5, 7, 1, 20, 21, 15, 5, 18, 9, 1, 20, 19, 1, 19, 19, 1, 16, 25, 2, 19, 14, 13, 1, 4, 19, 2, 1, 4, 1, 19, 5, 12, 9, 13, 1, 9, 13, 14, 21, 20, 19, 5, 4, 15, 2, 5, 20, 1, 4, 5, 19, 1, 5, 18, 1, 9, 12, 1, 5, 5, 14, 11, 1, 4, 9, 7, 9, 18, 2, 15, 12, 12, 15, 12, 14, 15, 14, 1, 5, 16, 1, 7, 1, 1, 18, 9, 12, 12, 1, 3, 9, 20, 5, 13, 8, 20, 9, 18, 1, 19, 16, 5, 18, 19, 5, 8, 1, 18, 1, 13, 18, 5, 19, 1, 12, 7, 14, 21, 16, 19, 5, 11, 1, 3, 19, 4, 12, 1, 2, 18, 1, 9, 12, 19, 21, 14, 1, 25, 11, 3, 21, 25, 1, 14, 9, 7, 1, 22, 19, 16, 9, 19, 19, 15, 7, 2, 2, 9, 21, 17, 19, 2, 9, 12, 8, 15, 14, 15, 8, 3, 1, 14, 4, 1, 15, 12, 25, 1, 16, 19, 5, 11, 15, 25, 16, 1, 12, 13, 5, 4, 15, 13, 7, 14, 9, 7, 18, 15, 7, 14, 5, 19, 3, 14, 9, 26, 2, 1, 2, 5, 11, 1, 18, 11, 15, 2, 5, 14, 18, 1, 2, 9, 18, 1, 3, 5, 13, 9, 12, 18, 1, 15, 18, 1, 18, 1, 9, 20, 21, 18, 1, 13, 1, 18, 1, 13, 15, 4, 5, 12, 6, 14, 15, 4, 12, 5, 19, 5, 20, 1, 13, 4, 9, 1, 16]);
----------

%%  runtime:       17.619 (17619.729 ms)
%%  solvetime:     0.516 (516.223 ms)
%%  solutions:     1
%%  variables:     39568
%%  propagators:   50523
%%  propagations:  831866
%%  nodes:         220
%%  failures:      51
%%  restarts:      0
%%  peak depth:    141

GECODE_TUPLESET_MEM
GECODE_TUPLESET_MEM
GECODE_TUPLESET_MEM
GECODE_TUPLESET_MEM
GECODE_TUPLESET_MEM
GECODE_TUPLESET_MEM
GECODE_TUPLESET_MEM
GECODE_TUPLESET_MEM
GECODE_TUPLESET_MEM
GECODE_TUPLESET_MEM
GECODE_TUPLESET_MEM
GECODE_TUPLESET_MEM
GECODE_TUPLESET_MEM
GECODE_TUPLESET_MEM
GECODE_TUPLESET_MEM
GECODE_TUPLESET_MEM
GECODE_TUPLESET_MEM
GECODE_TUPLESET_MEM
GECODE_TUPLESET_MEM
GECODE_TUPLESET_MEM
GECODE_TUPLESET_MEM
GECODE_TUPLESET_MEM
GECODE_TUPLESET_MEM
GECODE_TUPLESET_MEM
GECODE_TUPLESET_MEM
GECODE_TUPLESET_MEM
GECODE_TUPLESET_MEM
GECODE_TUPLESET_MEM
GECODE_TUPLESET_MEM
GECODE_TUPLESET_MEM
GECODE_TUPLESET_MEM
GECODE_TUPLESET_MEM
GECODE_TUPLESET_MEM
GECODE_TUPLESET_MEM
GECODE_TUPLESET_MEM
GECODE_TUPLESET_MEM
GECODE_TUPLESET_MEM
GECODE_TUPLESET_MEM
GECODE_TUPLESET_MEM
GECODE_TUPLESET_MEM
GECODE_TUPLESET_MEM
GECODE_TUPLESET_MEM
GECODE_TUPLESET_MEM
GECODE_TUPLESET_MEM
GECODE_TUPLESET_MEM
GECODE_TUPLESET_MEM
GECODE_TUPLESET_MEM
GECODE_TUPLESET_MEM
GECODE_TUPLESET_MEM
GECODE_TUPLESET_MEM
GECODE_TUPLESET_MEM
GECODE_TUPLESET_MEM
GECODE_TUPLESET_MEM
GECODE_TUPLESET_MEM
GECODE_TUPLESET_MEM
GECODE_TUPLESET_MEM
GECODE_TUPLESET_MEM
GECODE_TUPLESET_MEM
GECODE_TUPLESET_MEM
GECODE_TUPLESET_MEM
GECODE_TUPLESET_MEM
GECODE_TUPLESET_MEM
GECODE_TUPLESET_MEM
GECODE_TUPLESET_MEM
GECODE_TUPLESET_MEM
GECODE_TUPLESET_MEM
GECODE_TUPLESET_MEM
GECODE_TUPLESET_MEM
GECODE_TUPLESET_MEM
GECODE_TUPLESET_MEM
GECODE_TUPLESET_MEM
GECODE_TUPLESET_MEM
GECODE_TUPLESET_MEM
GECODE_TUPLESET_MEM
GECODE_TUPLESET_MEM
GECODE_TUPLESET_MEM
GECODE_TUPLESET_MEM
GECODE_TUPLESET_MEM
GECODE_TUPLESET_MEM
GECODE_TUPLESET_MEM
GECODE_TUPLESET_MEM
GECODE_TUPLESET_MEM
GECODE_TUPLESET_MEM
GECODE_TUPLESET_MEM
GECODE_TUPLESET_MEM
GECODE_TUPLESET_MEM
GECODE_TUPLESET_MEM
GECODE_TUPLESET_MEM
GECODE_TUPLESET_MEM
GECODE_TUPLESET_MEM
GECODE_TUPLESET_MEM
GECODE_TUPLESET_MEM
GECODE_TUPLESET_MEM
GECODE_TUPLESET_MEM
GECODE_TUPLESET_MEM
GECODE_TUPLESET_MEM
GECODE_TUPLESET_MEM
GECODE_TUPLESET_MEM
GECODE_TUPLESET_MEM
GECODE_TUPLESET_MEM
GECODE_TUPLESET_MEM
GECODE_TUPLESET_MEM
GECODE_TUPLESET_MEM
GECODE_TUPLESET_MEM
GECODE_TUPLESET_MEM
GECODE_TUPLESET_MEM
GECODE_TUPLESET_MEM
GECODE_TUPLESET_MEM
GECODE_TUPLESET_MEM
GECODE_TUPLESET_MEM
GECODE_TUPLESET_MEM
GECODE_TUPLESET_MEM
GECODE_TUPLESET_MEM
GECODE_TUPLESET_MEM
GECODE_TUPLESET_MEM
GECODE_TUPLESET_MEM
GECODE_TUPLESET_MEM
GECODE_TUPLESET_MEM
GECODE_TUPLESET_MEM
GECODE_TUPLESET_MEM
GECODE_TUPLESET_MEM
GECODE_TUPLESET_MEM
GECODE_TUPLESET_MEM
GECODE_TUPLESET_MEM
GECODE_TUPLESET_MEM
GECODE_TUPLESET_MEM
GECODE_TUPLESET_MEM
GECODE_TUPLESET_MEM
GECODE_TUPLESET_MEM
GECODE_TUPLESET_MEM
GECODE_TUPLESET_MEM
GECODE_TUPLESET_MEM
GECODE_TUPLESET_MEM
GECODE_TUPLESET_MEM
GECODE_TUPLESET_MEM
GECODE_TUPLESET_MEM
GECODE_TUPLESET_MEM
GECODE_TUPLESET_MEM
GECODE_TUPLESET_MEM
GECODE_TUPLESET_MEM
GECODE_TUPLESET_MEM
GECODE_TUPLESET_MEM
GECODE_TUPLESET_MEM
GECODE_TUPLESET_MEM
GECODE_TUPLESET_MEM
GECODE_TUPLESET_MEM
GECODE_TUPLESET_MEM
GECODE_TUPLESET_MEM
GECODE_TUPLESET_MEM
GECODE_TUPLESET_MEM
L = array1d(0..369, [1, 2, 1, 18, 14, 19, 1, 13, 2, 1, 1, 4, 5, 12, 1, 19, 1, 20, 5, 15, 12, 5, 15, 7, 18, 9, 12, 12, 3, 15, 13, 9, 3, 1, 14, 1, 12, 15, 13, 1, 14, 20, 15, 20, 1, 12, 20, 8, 9, 7, 8, 12, 21, 12, 12, 2, 1, 12, 19, 1, 21, 26, 2, 5, 11, 1, 20, 8, 1, 2, 1, 19, 3, 1, 13, 2, 9, 14, 9, 12, 1, 4, 19, 20, 5, 1, 4, 1, 12, 13, 15, 8, 1, 4, 7, 21, 12, 1, 7, 19, 1, 14, 8, 1, 8, 2, 5, 3, 11, 15, 14, 12, 5, 9, 2, 14, 9, 26, 14, 1, 22, 1, 8, 15, 12, 1, 7, 5, 18, 7, 5, 14, 1, 9, 18, 9, 19, 12, 9, 14, 5, 14, 5, 22, 5, 18, 3, 5, 14, 20, 2, 5, 4, 2, 21, 7, 18, 15, 1, 4, 19, 5, 5, 1, 12, 19, 15, 12, 15, 12, 12, 15, 2, 18, 9, 7, 9, 4, 1, 19, 8, 1, 20, 5, 1, 7, 12, 5, 8, 15, 2, 15, 16, 15, 20, 20, 1, 23, 1, 20, 15, 13, 9, 5, 2, 5, 1, 13, 5, 18, 7, 9, 4, 5, 1, 19, 16, 5, 3, 9, 5, 6, 12, 1, 14, 5, 13, 9, 12, 5, 4, 19, 5, 12, 15, 12, 5, 14, 19, 5, 5, 4, 1, 12, 9, 19, 1, 3, 5, 12, 12, 1, 18, 19, 14, 1, 3, 11, 5, 4, 19, 13, 9, 12, 5, 4, 5, 18, 1, 2, 1, 1, 5, 20, 8, 5, 12, 7, 5, 5, 26, 5, 18, 19, 1, 9, 4, 5, 4, 5, 5, 12, 11, 1, 1, 2, 1, 4, 5, 19, 16, 1, 9, 18, 5, 4, 6, 5, 3, 1, 12, 1, 2, 1, 3, 9, 1, 12, 20, 1, 3, 1, 13, 5, 12, 20, 1, 16, 9, 18, 5, 18, 1, 19, 25, 13, 9, 18, 1, 20, 15, 14, 5, 1, 18, 21, 2, 1, 20, 5, 12, 12, 19, 15, 18, 20, 12, 5, 14, 20, 19, 12, 1, 20, 9, 14, 8, 1, 11, 5]);
----------

%%  runtime:       2.141 (2141.868 ms)
%%  solvetime:     0.394 (394.814 ms)
%%  solutions:     1
%%  variables:     39568
%%  propagators:   50523
%%  propagations:  533593
%%  nodes:         181
%%  failures:      30
%%  restarts:      0
%%  peak depth:    134

GECODE_TUPLESET_SPEED
GECODE_TUPLESET_SPEED
GECODE_TUPLESET_SPEED
GECODE_TUPLESET_SPEED
GECODE_TUPLESET_SPEED
GECODE_TUPLESET_SPEED
GECODE_TUPLESET_SPEED
GECODE_TUPLESET_SPEED
GECODE_TUPLESET_SPEED
GECODE_TUPLESET_SPEED
GECODE_TUPLESET_SPEED
GECODE_TUPLESET_SPEED
GECODE_TUPLESET_SPEED
GECODE_TUPLESET_SPEED
GECODE_TUPLESET_SPEED
GECODE_TUPLESET_SPEED
GECODE_TUPLESET_SPEED
GECODE_TUPLESET_SPEED
GECODE_TUPLESET_SPEED
GECODE_TUPLESET_SPEED
GECODE_TUPLESET_SPEED
GECODE_TUPLESET_SPEED
GECODE_TUPLESET_SPEED
GECODE_TUPLESET_SPEED
GECODE_TUPLESET_SPEED
GECODE_TUPLESET_SPEED
GECODE_TUPLESET_SPEED
GECODE_TUPLESET_SPEED
GECODE_TUPLESET_SPEED
GECODE_TUPLESET_SPEED
GECODE_TUPLESET_SPEED
GECODE_TUPLESET_SPEED
GECODE_TUPLESET_SPEED
GECODE_TUPLESET_SPEED
GECODE_TUPLESET_SPEED
GECODE_TUPLESET_SPEED
GECODE_TUPLESET_SPEED
GECODE_TUPLESET_SPEED
GECODE_TUPLESET_SPEED
GECODE_TUPLESET_SPEED
GECODE_TUPLESET_SPEED
GECODE_TUPLESET_SPEED
GECODE_TUPLESET_SPEED
GECODE_TUPLESET_SPEED
GECODE_TUPLESET_SPEED
GECODE_TUPLESET_SPEED
GECODE_TUPLESET_SPEED
GECODE_TUPLESET_SPEED
GECODE_TUPLESET_SPEED
GECODE_TUPLESET_SPEED
GECODE_TUPLESET_SPEED
GECODE_TUPLESET_SPEED
GECODE_TUPLESET_SPEED
GECODE_TUPLESET_SPEED
GECODE_TUPLESET_SPEED
GECODE_TUPLESET_SPEED
GECODE_TUPLESET_SPEED
GECODE_TUPLESET_SPEED
GECODE_TUPLESET_SPEED
GECODE_TUPLESET_SPEED
GECODE_TUPLESET_SPEED
GECODE_TUPLESET_SPEED
GECODE_TUPLESET_SPEED
GECODE_TUPLESET_SPEED
GECODE_TUPLESET_SPEED
GECODE_TUPLESET_SPEED
GECODE_TUPLESET_SPEED
GECODE_TUPLESET_SPEED
GECODE_TUPLESET_SPEED
GECODE_TUPLESET_SPEED
GECODE_TUPLESET_SPEED
GECODE_TUPLESET_SPEED
GECODE_TUPLESET_SPEED
GECODE_TUPLESET_SPEED
GECODE_TUPLESET_SPEED
GECODE_TUPLESET_SPEED
GECODE_TUPLESET_SPEED
GECODE_TUPLESET_SPEED
GECODE_TUPLESET_SPEED
GECODE_TUPLESET_SPEED
GECODE_TUPLESET_SPEED
GECODE_TUPLESET_SPEED
GECODE_TUPLESET_SPEED
GECODE_TUPLESET_SPEED
GECODE_TUPLESET_SPEED
GECODE_TUPLESET_SPEED
GECODE_TUPLESET_SPEED
GECODE_TUPLESET_SPEED
GECODE_TUPLESET_SPEED
GECODE_TUPLESET_SPEED
GECODE_TUPLESET_SPEED
GECODE_TUPLESET_SPEED
GECODE_TUPLESET_SPEED
GECODE_TUPLESET_SPEED
GECODE_TUPLESET_SPEED
GECODE_TUPLESET_SPEED
GECODE_TUPLESET_SPEED
GECODE_TUPLESET_SPEED
GECODE_TUPLESET_SPEED
GECODE_TUPLESET_SPEED
GECODE_TUPLESET_SPEED
GECODE_TUPLESET_SPEED
GECODE_TUPLESET_SPEED
GECODE_TUPLESET_SPEED
GECODE_TUPLESET_SPEED
GECODE_TUPLESET_SPEED
GECODE_TUPLESET_SPEED
GECODE_TUPLESET_SPEED
GECODE_TUPLESET_SPEED
GECODE_TUPLESET_SPEED
GECODE_TUPLESET_SPEED
GECODE_TUPLESET_SPEED
GECODE_TUPLESET_SPEED
GECODE_TUPLESET_SPEED
GECODE_TUPLESET_SPEED
GECODE_TUPLESET_SPEED
GECODE_TUPLESET_SPEED
GECODE_TUPLESET_SPEED
GECODE_TUPLESET_SPEED
GECODE_TUPLESET_SPEED
GECODE_TUPLESET_SPEED
GECODE_TUPLESET_SPEED
GECODE_TUPLESET_SPEED
GECODE_TUPLESET_SPEED
GECODE_TUPLESET_SPEED
GECODE_TUPLESET_SPEED
GECODE_TUPLESET_SPEED
GECODE_TUPLESET_SPEED
GECODE_TUPLESET_SPEED
GECODE_TUPLESET_SPEED
GECODE_TUPLESET_SPEED
GECODE_TUPLESET_SPEED
GECODE_TUPLESET_SPEED
GECODE_TUPLESET_SPEED
GECODE_TUPLESET_SPEED
GECODE_TUPLESET_SPEED
GECODE_TUPLESET_SPEED
GECODE_TUPLESET_SPEED
GECODE_TUPLESET_SPEED
GECODE_TUPLESET_SPEED
GECODE_TUPLESET_SPEED
GECODE_TUPLESET_SPEED
GECODE_TUPLESET_SPEED
GECODE_TUPLESET_SPEED
GECODE_TUPLESET_SPEED
GECODE_TUPLESET_SPEED
GECODE_TUPLESET_SPEED
GECODE_TUPLESET_SPEED
GECODE_TUPLESET_SPEED
GECODE_TUPLESET_SPEED
L = array1d(0..369, [1, 2, 1, 18, 14, 19, 1, 13, 2, 1, 1, 4, 5, 12, 1, 19, 1, 20, 5, 15, 12, 5, 15, 7, 18, 9, 12, 12, 3, 15, 13, 9, 3, 1, 14, 1, 12, 15, 13, 1, 14, 20, 15, 20, 1, 12, 20, 8, 9, 7, 8, 12, 21, 12, 12, 2, 1, 12, 19, 1, 21, 26, 2, 5, 11, 1, 20, 8, 1, 2, 1, 19, 3, 1, 13, 2, 9, 14, 9, 12, 1, 4, 19, 20, 5, 1, 4, 1, 12, 13, 15, 8, 1, 4, 7, 21, 12, 1, 7, 19, 1, 14, 8, 1, 8, 2, 5, 3, 11, 15, 14, 12, 5, 9, 2, 14, 9, 26, 14, 1, 22, 1, 8, 15, 12, 1, 7, 5, 18, 7, 5, 14, 1, 9, 18, 9, 19, 12, 9, 14, 5, 14, 5, 22, 5, 18, 3, 5, 14, 20, 2, 5, 4, 2, 21, 7, 18, 15, 1, 4, 19, 5, 5, 1, 12, 19, 15, 12, 15, 12, 12, 15, 2, 18, 9, 7, 9, 4, 1, 19, 8, 1, 20, 5, 1, 7, 12, 5, 8, 15, 2, 15, 16, 15, 20, 20, 1, 23, 1, 20, 15, 13, 9, 5, 2, 5, 1, 13, 5, 18, 7, 9, 4, 5, 1, 19, 16, 5, 3, 9, 5, 6, 12, 1, 14, 5, 13, 9, 12, 5, 4, 19, 5, 12, 15, 12, 5, 14, 19, 5, 5, 4, 1, 12, 9, 19, 1, 3, 5, 12, 12, 1, 18, 19, 14, 1, 3, 11, 5, 4, 19, 13, 9, 12, 5, 4, 5, 18, 1, 2, 1, 1, 5, 20, 8, 5, 12, 7, 5, 5, 26, 5, 18, 19, 1, 9, 4, 5, 4, 5, 5, 12, 11, 1, 1, 2, 1, 4, 5, 19, 16, 1, 9, 18, 5, 4, 6, 5, 3, 1, 12, 1, 2, 1, 3, 9, 1, 12, 20, 1, 3, 1, 13, 5, 12, 20, 1, 16, 9, 18, 5, 18, 1, 19, 25, 13, 9, 18, 1, 20, 15, 14, 5, 1, 18, 21, 2, 1, 20, 5, 12, 12, 19, 15, 18, 20, 12, 5, 14, 20, 19, 12, 1, 20, 9, 14, 8, 1, 11, 5]);
----------

%%  runtime:       2.246 (2246.335 ms)
%%  solvetime:     0.445 (445.691 ms)
%%  solutions:     1
%%  variables:     39568
%%  propagators:   50523
%%  propagations:  532955
%%  nodes:         181
%%  failures:      30
%%  restarts:      0
%%  peak depth:    134

COMPACT_TABLE
COMPACT_TABLE
COMPACT_TABLE
COMPACT_TABLE
COMPACT_TABLE
COMPACT_TABLE
COMPACT_TABLE
COMPACT_TABLE
COMPACT_TABLE
COMPACT_TABLE
COMPACT_TABLE
COMPACT_TABLE
COMPACT_TABLE
COMPACT_TABLE
COMPACT_TABLE
COMPACT_TABLE
COMPACT_TABLE
COMPACT_TABLE
COMPACT_TABLE
COMPACT_TABLE
COMPACT_TABLE
COMPACT_TABLE
COMPACT_TABLE
COMPACT_TABLE
COMPACT_TABLE
COMPACT_TABLE
COMPACT_TABLE
COMPACT_TABLE
COMPACT_TABLE
COMPACT_TABLE
COMPACT_TABLE
COMPACT_TABLE
COMPACT_TABLE
COMPACT_TABLE
COMPACT_TABLE
COMPACT_TABLE
COMPACT_TABLE
COMPACT_TABLE
COMPACT_TABLE
COMPACT_TABLE
COMPACT_TABLE
COMPACT_TABLE
COMPACT_TABLE
COMPACT_TABLE
COMPACT_TABLE
COMPACT_TABLE
COMPACT_TABLE
COMPACT_TABLE
COMPACT_TABLE
COMPACT_TABLE
COMPACT_TABLE
COMPACT_TABLE
COMPACT_TABLE
COMPACT_TABLE
COMPACT_TABLE
COMPACT_TABLE
COMPACT_TABLE
COMPACT_TABLE
COMPACT_TABLE
COMPACT_TABLE
COMPACT_TABLE
COMPACT_TABLE
COMPACT_TABLE
COMPACT_TABLE
COMPACT_TABLE
COMPACT_TABLE
COMPACT_TABLE
COMPACT_TABLE
COMPACT_TABLE
COMPACT_TABLE
COMPACT_TABLE
COMPACT_TABLE
COMPACT_TABLE
COMPACT_TABLE
COMPACT_TABLE
COMPACT_TABLE
COMPACT_TABLE
COMPACT_TABLE
COMPACT_TABLE
COMPACT_TABLE
COMPACT_TABLE
COMPACT_TABLE
COMPACT_TABLE
COMPACT_TABLE
COMPACT_TABLE
COMPACT_TABLE
COMPACT_TABLE
COMPACT_TABLE
COMPACT_TABLE
COMPACT_TABLE
COMPACT_TABLE
COMPACT_TABLE
COMPACT_TABLE
COMPACT_TABLE
COMPACT_TABLE
COMPACT_TABLE
COMPACT_TABLE
COMPACT_TABLE
COMPACT_TABLE
COMPACT_TABLE
COMPACT_TABLE
COMPACT_TABLE
COMPACT_TABLE
COMPACT_TABLE
COMPACT_TABLE
COMPACT_TABLE
COMPACT_TABLE
COMPACT_TABLE
COMPACT_TABLE
COMPACT_TABLE
COMPACT_TABLE
COMPACT_TABLE
COMPACT_TABLE
COMPACT_TABLE
COMPACT_TABLE
COMPACT_TABLE
COMPACT_TABLE
COMPACT_TABLE
COMPACT_TABLE
COMPACT_TABLE
COMPACT_TABLE
COMPACT_TABLE
COMPACT_TABLE
COMPACT_TABLE
COMPACT_TABLE
COMPACT_TABLE
COMPACT_TABLE
COMPACT_TABLE
COMPACT_TABLE
COMPACT_TABLE
COMPACT_TABLE
COMPACT_TABLE
COMPACT_TABLE
COMPACT_TABLE
COMPACT_TABLE
COMPACT_TABLE
COMPACT_TABLE
COMPACT_TABLE
COMPACT_TABLE
COMPACT_TABLE
COMPACT_TABLE
COMPACT_TABLE
COMPACT_TABLE
COMPACT_TABLE
COMPACT_TABLE
COMPACT_TABLE
COMPACT_TABLE
COMPACT_TABLE
COMPACT_TABLE
COMPACT_TABLE
L = array1d(0..369, [1, 2, 1, 18, 14, 19, 1, 13, 2, 1, 1, 4, 5, 12, 1, 19, 1, 20, 5, 15, 12, 5, 15, 7, 18, 9, 12, 12, 3, 15, 13, 9, 3, 1, 14, 1, 12, 15, 13, 1, 14, 20, 15, 20, 1, 12, 20, 8, 9, 7, 8, 12, 21, 12, 12, 2, 1, 12, 19, 1, 21, 26, 2, 5, 11, 1, 20, 8, 1, 2, 1, 19, 3, 1, 13, 2, 9, 14, 9, 12, 1, 4, 19, 20, 5, 1, 4, 1, 12, 13, 15, 8, 1, 4, 7, 21, 12, 1, 7, 19, 1, 14, 8, 1, 8, 2, 5, 3, 11, 15, 14, 12, 5, 9, 2, 14, 9, 26, 14, 1, 22, 1, 8, 15, 12, 1, 7, 5, 18, 7, 5, 14, 1, 9, 18, 9, 19, 12, 9, 14, 5, 14, 5, 22, 5, 18, 3, 5, 14, 20, 2, 5, 4, 2, 21, 7, 18, 15, 1, 4, 19, 5, 5, 1, 12, 19, 15, 12, 15, 12, 12, 15, 2, 18, 9, 7, 9, 4, 1, 19, 8, 1, 20, 5, 1, 7, 12, 5, 8, 15, 2, 15, 16, 15, 20, 20, 1, 23, 1, 20, 15, 13, 9, 5, 2, 5, 1, 13, 5, 18, 7, 9, 4, 5, 1, 19, 16, 5, 3, 9, 5, 6, 12, 1, 14, 5, 13, 9, 12, 5, 4, 19, 5, 12, 15, 12, 5, 14, 19, 5, 5, 4, 1, 12, 9, 19, 1, 3, 5, 12, 12, 1, 18, 19, 14, 1, 3, 11, 5, 4, 19, 13, 9, 12, 5, 4, 5, 18, 1, 2, 1, 1, 5, 20, 8, 5, 12, 7, 5, 5, 26, 5, 18, 19, 1, 9, 4, 5, 4, 5, 5, 12, 11, 1, 1, 2, 1, 4, 5, 19, 16, 1, 9, 18, 5, 4, 6, 5, 3, 1, 12, 1, 2, 1, 3, 9, 1, 12, 20, 1, 3, 1, 13, 5, 12, 20, 1, 16, 9, 18, 5, 18, 1, 19, 25, 13, 9, 18, 1, 20, 15, 14, 5, 1, 18, 21, 2, 1, 20, 5, 12, 12, 19, 15, 18, 20, 12, 5, 14, 20, 19, 12, 1, 20, 9, 14, 8, 1, 11, 5]);
----------

%%  runtime:       2.698 (2698.734 ms)
%%  solvetime:     0.316 (316.453 ms)
%%  solutions:     1
%%  variables:     39568
%%  propagators:   50523
%%  propagations:  531408
%%  nodes:         181
%%  failures:      30
%%  restarts:      0
%%  peak depth:    134

